c turning on binary mode checking
c parsing input formula with 202048 variables and 780985 clauses
c finished parsing, read 2654311 bytes from proof file
c detected empty clause; start verification via backward checking
c 7855 of 780985 clauses in core                            
c 2617 of 99072 lemmas in core using 75249 resolution steps
c 0 RAT lemmas in core; 450 redundant literals in core lemmas
s VERIFIED
c verification time: 1.156 seconds
